Optimal - objective value 36.00000000
      2 C0003                  1                       0
     12 C0013                  1                       0
     23 C0024                  1                       0
     35 C0036                  1                       0
     62 C0063                  1                       0
     67 C0068                  1                       0
     82 C0083                  1                       0
     84 C0085                  1                       0
    145 C0146                  1                       0
    233 C0234                  1         -8.88178419700125e-16
    291 C0292                  1         -8.88178419700125e-16
    348 C0349                  1                       0
    362 C0363                  1                       0
    371 C0372                  1         -2.22044604925031e-16
    436 C0437                  1                       0
    541 C0542                  1         8.88178419700125e-16
    585 C0586                  1                       0
    628 C0629                  1                       0
    637 C0638                  1         8.88178419700125e-16
    677 C0678                  1                       0
    765 C0766                  1                       0
    805 C0806                  1                       0
    881 C0882                  1         -2.66453525910038e-15
    919 C0920                  1                       0
    925 C0926                  1                       0
    941 C0942                  1                       0
   1020 C1021                  1                      -1
   1100 C1101                  1                       0
   1173 C1174                  1                      -1
   1203 C1204                  1         -6.66133814775094e-16
   1214 C1215                  1                       0
   1217 C1218                  1                       0
   1245 C1246                  1                       0
   1261 C1262                  1                       0
   1277 C1278                  1                       2
   1281 C1282                  1                       0
